QPLIB_3728
LGQ
minimize
88 # number of variables
47 # number of constraints
0.0 # default value for linear coefficients in objective
76 # number of non-default linear coefficients in objective
1 53.15338392
2 177.5831814
3 80.64282666
4 231.9591645
5 394.4324281
6 444.9740701
7 459.7948178
8 695.6296495
9 323.2039814
10 107.360283
11 361.8598871
12 367.306912
13 282.8721912
14 44.07622537
15 317.8775444
16 316.1343904
17 100.3304197
18 127.9269002
19 139.2632476
20 254.0002226
21 194.1453169
22 116.0372903
23 222.1127875
24 263.3562621
25 571.2893115
26 347.1711105
27 646.5804189
28 747.5000774
29 267.1802664
30 432.1875368
31 223.1939328
32 305.6062817
33 484.1481646
34 255.1882673
35 500.4092805
36 357.3488956
37 154.8186135
38 47.94821852
39 178.0150037
40 197.2991836
41 110.2213276
42 276.3352191
43 66.63675507
44 215.1269206
45 251.8656804
46 259.4855558
47 325.9039928
48 533.2638617
49 365.2894673
50 698.4258486
51 342.8547847
52 672.1573152
53 278.5229963
54 127.6568528
55 302.312727
56 281.2180535
57 629.7080281
58 303.0670149
59 662.4247217
60 521.2720059
61 313.6973235
62 136.4460104
63 95.44477937
64 401.4402965
65 160.307674
66 107.4451341
67 456.7067237
68 163.7276298
69 103.9750942
70 349.5003873
71 137.7442591
72 91.71747935
73 74750.00774
74 74750.00774
75 74750.00774
76 74750.00774
0.0 # objective constant
36 # number of quadratic terms in all constraints
36 1072693249 1 -2.0
36 1072693249 1 2.0
36 1072693249 1 2.0
37 1 1 -2.0
37 1 1 2.0
37 1 1 2.0
38 1072693249 1 -2.0
38 1072693249 1 2.0
38 1072693249 1 2.0
39 1 1 -2.0
39 1 1 2.0
39 1 1 2.0
40 1072693249 1 -2.0
40 1072693249 1 2.0
40 1072693249 1 2.0
41 1 1 -2.0
41 1 1 2.0
41 1 1 2.0
42 1072693249 1 -2.0
42 1072693249 1 2.0
42 1072693249 1 2.0
43 1 1 -2.0
43 1 1 2.0
43 1 1 2.0
44 1072693249 1 -2.0
44 1072693249 1 2.0
44 1072693249 1 2.0
45 1 1 -2.0
45 1 1 2.0
45 1 1 2.0
46 1072693249 1 -2.0
46 1072693249 1 2.0
46 1072693249 1 2.0
47 1 1 -2.0
47 1 1 2.0
47 1 1 2.0
168 # number of linear terms in all constraints
1 1 0.609376132
1 5 1.180016336
1 9 0.967493052
1 13 1.004918785
1 17 0.698898063
1 21 0.540292599
1 25 1.460452986
1 29 0.811980791
1 33 0.973180988
1 37 0.544914116
1 41 0.78515855
1 45 1.312281472
1 49 1.346783152
1 53 0.635811295
1 57 1.327207817
1 77 -3.226643869
1 78 -6.453287738
1 79 -9.679931606
2 2 0.609376132
2 6 1.180016336
2 10 0.967493052
2 14 1.004918785
2 18 0.698898063
2 22 0.540292599
2 26 1.460452986
2 30 0.811980791
2 34 0.973180988
2 38 0.544914116
2 42 0.78515855
2 46 1.312281472
2 50 1.346783152
2 54 0.635811295
2 58 1.327207817
2 80 -3.195288162
2 81 -6.390576324
2 82 -9.585864487
3 3 0.609376132
3 7 1.180016336
3 11 0.967493052
3 15 1.004918785
3 19 0.698898063
3 23 0.540292599
3 27 1.460452986
3 31 0.811980791
3 35 0.973180988
3 39 0.544914116
3 43 0.78515855
3 47 1.312281472
3 51 1.346783152
3 55 0.635811295
3 59 1.327207817
3 83 -2.630139175
3 84 -5.260278351
3 85 -7.890417526
4 4 0.609376132
4 8 1.180016336
4 12 0.967493052
4 16 1.004918785
4 20 0.698898063
4 24 0.540292599
4 28 1.460452986
4 32 0.811980791
4 36 0.973180988
4 40 0.544914116
4 44 0.78515855
4 48 1.312281472
4 52 1.346783152
4 56 0.635811295
4 60 1.327207817
4 86 -2.674324177
4 87 -5.348648353
4 88 -8.02297253
5 1 1.0
5 2 1.0
5 3 1.0
5 4 1.0
6 5 1.0
6 6 1.0
6 7 1.0
6 8 1.0
7 9 1.0
7 10 1.0
7 11 1.0
7 12 1.0
8 13 1.0
8 14 1.0
8 15 1.0
8 16 1.0
9 17 1.0
9 18 1.0
9 19 1.0
9 20 1.0
10 21 1.0
10 22 1.0
10 23 1.0
10 24 1.0
11 25 1.0
11 26 1.0
11 27 1.0
11 28 1.0
12 29 1.0
12 30 1.0
12 31 1.0
12 32 1.0
13 33 1.0
13 34 1.0
13 35 1.0
13 36 1.0
14 37 1.0
14 38 1.0
14 39 1.0
14 40 1.0
15 41 1.0
15 42 1.0
15 43 1.0
15 44 1.0
16 45 1.0
16 46 1.0
16 47 1.0
16 48 1.0
17 49 1.0
17 50 1.0
17 51 1.0
17 52 1.0
18 53 1.0
18 54 1.0
18 55 1.0
18 56 1.0
19 57 1.0
19 58 1.0
19 59 1.0
19 60 1.0
20 61 1.0
20 62 1.0
20 63 1.0
21 64 1.0
21 65 1.0
21 66 1.0
22 67 1.0
22 68 1.0
22 69 1.0
23 70 1.0
23 71 1.0
23 72 1.0
24 61 -1.0
24 77 1.0
25 62 -1.0
25 78 1.0
26 63 -1.0
26 79 1.0
27 64 -1.0
27 80 1.0
28 65 -1.0
28 81 1.0
29 66 -1.0
29 82 1.0
30 67 -1.0
30 83 1.0
31 68 -1.0
31 84 1.0
32 69 -1.0
32 85 1.0
33 70 -1.0
33 86 1.0
34 71 -1.0
34 87 1.0
35 72 -1.0
35 88 1.0
1.79769313486232E+308 # value for infinity
-1.79769313486232E+308 # default left-hand-side value
19 # number of non-default left-hand-sides
1 0.0
2 0.0
3 0.0
4 0.0
5 1.0
6 1.0
7 1.0
8 1.0
9 1.0
10 1.0
11 1.0
12 1.0
13 1.0
14 1.0
15 1.0
16 1.0
17 1.0
18 1.0
19 1.0
0.0 # default right-hand-side value
19 # number of non-default right-hand-sides
5 1.0
6 1.0
7 1.0
8 1.0
9 1.0
10 1.0
11 1.0
12 1.0
13 1.0
14 1.0
15 1.0
16 1.0
17 1.0
18 1.0
19 1.0
20 1.0
21 1.0
22 1.0
23 1.0
0.0 # default variable lower bound value
0 # number of non-default variable lower bounds
1.0 # default variable upper bound value
16 # number of non-default variable upper bounds
73 1.79769313486232E+308
74 1.79769313486232E+308
75 1.79769313486232E+308
76 1.79769313486232E+308
77 1.79769313486232E+308
78 1.79769313486232E+308
79 1.79769313486232E+308
80 1.79769313486232E+308
81 1.79769313486232E+308
82 1.79769313486232E+308
83 1.79769313486232E+308
84 1.79769313486232E+308
85 1.79769313486232E+308
86 1.79769313486232E+308
87 1.79769313486232E+308
88 1.79769313486232E+308
1 # default variable type
16 # number of non-default variable types
73 1
74 1
75 1
76 1
77 1
78 1
79 1
80 1
81 1
82 1
83 1
84 1
85 1
86 1
87 1
88 1
0.0 # default variable primal value in starting point
0 # number of non-default variable primal values in starting point
0.0 # default constraint dual value in starting point
0 # number of non-default constraint dual values in starting point
0.0 # default variable bound dual value in starting point
0 # number of non-default variable bound dual values in starting point
0 # number of non-default variable names
0 # number of non-default constraint names
